sat
(:binary-propagations  1848
 :decisions            2348
 :del-clause           496
 :final-checks         5
 :max-generation       1
 :max-memory           29.64
 :memory               22.80
 :mk-bool-var          3094
 :mk-clause            847
 :mk-clause-binary     2094
 :num-allocs           167378529
 :num-checks           1
 :propagations         2272
 :quant-instantiations 500
 :restarts             4
 :rlimit-count         1823890
 :time                 0.21)
